
Gurobi 9.5.0 (linux64) logging started Fri Nov 24 17:15:56 2023

Set parameter LogFile to value "/lustre1/scratch/348/vsc34888/JointResearch/05.Models/06.Benchmarking/E.Representative_days_based_on_Line_Benefits_OptModel/RTS24_mod1_ByStages_nc90/openStarNet_RTS24_mod1_ByStages_nc90.log"
Set parameter Method to value 2
Set parameter MIPFocus to value 1
Set parameter Presolve to value 2
Set parameter RINS to value 100
Set parameter MIPGap to value 0.01
Set parameter Threads to value 36
Set parameter TimeLimit to value 259200
Set parameter IterationLimit to value 760000000
Gurobi Optimizer version 9.5.0 build v9.5.0rc5 (linux64)
Thread count: 36 physical cores, 36 logical processors, using up to 36 threads
Optimize a model with 32308 rows, 21811 columns and 88033 nonzeros
Model fingerprint: 0xa606b6bd
Variable types: 21790 continuous, 21 integer (21 binary)
Coefficient statistics:
  Matrix range     [1e-03, 1e+03]
  Objective range  [1e+00, 1e+00]
  Bounds range     [6e-05, 3e+00]
  RHS range        [6e-05, 3e+00]
Presolve removed 19231 rows and 11033 columns
Presolve time: 0.11s
Presolved: 13077 rows, 10778 columns, 47218 nonzeros
Variable types: 10757 continuous, 21 integer (21 binary)
Found heuristic solution: objective 110.5500702
Root relaxation presolve removed 2 rows and 2 columns
Root relaxation presolved: 13075 rows, 10776 columns, 47214 nonzeros

Root barrier log...

Ordering time: 0.00s

Barrier statistics:
 Dense cols : 21
 AA' NZ     : 8.767e+04
 Factor NZ  : 2.511e+05 (roughly 12 MB of memory)
 Factor Ops : 5.147e+06 (less than 1 second per iteration)
 Threads    : 36

                  Objective                Residual
Iter       Primal          Dual         Primal    Dual     Compl     Time
   0   6.36377601e+05 -1.04468859e+08  5.15e+00 1.32e+02  9.47e+03     0s
   1   9.33663586e+04 -2.65244621e+07  6.35e-01 5.33e-09  1.28e+03     0s
   2   3.71075055e+04 -3.79602034e+06  1.61e-01 1.10e-09  1.61e+02     0s
   3   1.89366442e+04 -4.58447532e+05  6.72e-03 6.70e-11  1.60e+01     0s
   4   8.63106853e+03 -7.22901205e+04  1.18e-12 1.02e-11  2.65e+00     0s
   5   2.34870879e+03 -1.71921207e+04  4.02e-13 2.55e-12  6.41e-01     0s
   6   9.23012422e+02 -4.02419479e+03  3.50e-13 9.09e-13  1.62e-01     0s
   7   4.73834740e+02 -1.50677099e+03  1.85e-13 9.09e-13  6.49e-02     0s
   8   2.53537367e+02 -3.93592055e+02  2.07e-13 1.82e-12  2.12e-02     0s
   9   1.79249882e+02 -1.65662845e+02  1.14e-13 9.09e-13  1.13e-02     0s
  10   1.31364167e+02 -6.87878424e+01  1.36e-13 1.82e-12  6.56e-03     0s
  11   9.17691676e+01  2.52324013e+01  4.28e-13 1.82e-12  2.18e-03     0s
  12   7.72970077e+01  4.76626844e+01  4.50e-13 1.82e-12  9.72e-04     0s
  13   7.07361661e+01  5.40660769e+01  1.17e-12 9.09e-13  5.47e-04     0s
  14   6.75337247e+01  5.62152807e+01  3.70e-12 1.82e-12  3.71e-04     0s
  15   6.58460826e+01  5.75199823e+01  3.61e-12 1.82e-12  2.73e-04     0s
  16   6.49421048e+01  5.99205292e+01  4.21e-12 9.09e-13  1.65e-04     0s
  17   6.42701092e+01  6.08592366e+01  5.48e-12 4.55e-13  1.12e-04     0s
  18   6.33394224e+01  6.16011357e+01  4.17e-12 9.09e-13  5.70e-05     0s
  19   6.27870634e+01  6.20322381e+01  7.91e-12 1.82e-12  2.48e-05     0s
  20   6.27367653e+01  6.20572779e+01  6.55e-12 9.09e-13  2.23e-05     0s
  21   6.26436750e+01  6.21770604e+01  5.61e-12 9.09e-13  1.53e-05     0s
  22   6.26002532e+01  6.22947578e+01  2.82e-11 9.09e-13  1.00e-05     0s
  23   6.25641243e+01  6.23983023e+01  1.63e-11 9.09e-13  5.44e-06     0s
  24   6.25427291e+01  6.24401868e+01  2.52e-11 9.09e-13  3.36e-06     0s
  25   6.25333845e+01  6.24619853e+01  2.11e-11 9.09e-13  2.34e-06     0s
  26   6.25307486e+01  6.24870199e+01  2.10e-11 9.09e-13  1.43e-06     0s
  27   6.25129081e+01  6.24890540e+01  8.75e-11 9.09e-13  7.82e-07     0s
  28   6.25113816e+01  6.24973755e+01  6.98e-11 1.02e-12  4.59e-07     0s
  29   6.25105982e+01  6.25040815e+01  6.34e-11 1.82e-12  2.14e-07     0s
  30   6.25068191e+01  6.25044961e+01  1.08e-10 9.09e-13  7.62e-08     0s
  31   6.25065781e+01  6.25053659e+01  7.04e-11 9.09e-13  3.97e-08     0s
  32   6.25065463e+01  6.25061367e+01  9.26e-11 9.09e-13  1.34e-08     0s
  33   6.25063945e+01  6.25062565e+01  1.13e-10 9.09e-13  4.53e-09     0s
  34   6.25063469e+01  6.25063294e+01  2.48e-10 1.82e-12  5.74e-10     1s
  35   6.25063443e+01  6.25063407e+01  3.64e-10 4.34e-12  1.18e-10     1s
  36   6.25063442e+01  6.25063441e+01  5.72e-10 9.09e-13  3.67e-12     1s

Barrier solved model in 36 iterations and 0.51 seconds (0.45 work units)
Optimal objective 6.25063442e+01


Root relaxation: objective 6.250634e+01, 2037 iterations, 0.35 seconds (0.28 work units)

    Nodes    |    Current Node    |     Objective Bounds      |     Work
 Expl Unexpl |  Obj  Depth IntInf | Incumbent    BestBd   Gap | It/Node Time

     0     0   62.50634    0   16  110.55007   62.50634  43.5%     -    0s
H    0     0                     101.4092038   62.92748  37.9%     -    1s
     0     0   62.99649    0   16  101.40920   62.99649  37.9%     -    1s
     0     0   62.99649    0   15  101.40920   62.99649  37.9%     -    1s
H    0     0                      99.4439265   63.13194  36.5%     -    1s
     0     0   63.13194    0   13   99.44393   63.13194  36.5%     -    1s
     0     0   63.14235    0   13   99.44393   63.14235  36.5%     -    2s
     0     0   63.24402    0   18   99.44393   63.24402  36.4%     -    2s
H    0     0                      98.9938411   63.26304  36.1%     -    2s
     0     0   63.26304    0   13   98.99384   63.26304  36.1%     -    2s
     0     0   63.30071    0   11   98.99384   63.30071  36.1%     -    2s
     0     0   63.30130    0   11   98.99384   63.30130  36.1%     -    2s
H    0     0                      89.3668126   63.30130  29.2%     -    3s
     0     0   63.30219    0   10   89.36681   63.30219  29.2%     -    3s
H    0     0                      81.7336182   63.30219  22.6%     -    6s
     0     2   63.30219    0   10   81.73362   63.30219  22.6%     -    7s
    99   122   69.10657    7   14   81.73362   66.39942  18.8%   707   11s
H  103   122                      81.6243893   66.39942  18.7%   695   11s
   135   145   71.20703    8   13   81.62439   66.39942  18.7%   666   16s
   583   257     cutoff    9        81.62439   66.62674  18.4%   422   20s
  1136   293   76.00170    8   12   81.62439   70.05540  14.2%   376   25s
  1194   295     cutoff    9        81.62439   70.05540  14.2%   376   35s

Cutting planes:
  Gomory: 3
  Implied bound: 72
  MIR: 430
  Relax-and-lift: 47

Explored 3584 nodes (951264 simplex iterations) in 38.31 seconds (53.39 work units)
Thread count was 36 (of 36 available processors)

Solution count 7: 81.6244 81.7336 89.3668 ... 110.55

Optimal solution found (tolerance 1.00e-02)
Best objective 8.162438932428e+01, best bound 8.162438932428e+01, gap 0.0000%

Gurobi 9.5.0 (linux64) logging started Fri Nov 24 17:16:39 2023

Set parameter LogFile to value "/lustre1/scratch/348/vsc34888/JointResearch/05.Models/06.Benchmarking/E.Representative_days_based_on_Line_Benefits_OptModel/RTS24_mod1_ByStages_nc90/openStarNet_RTS24_mod1_ByStages_nc90.log"
Set parameter Method to value 2
Set parameter MIPFocus to value 1
Set parameter Presolve to value 2
Set parameter RINS to value 100
Set parameter MIPGap to value 0.01
Set parameter Threads to value 36
Set parameter TimeLimit to value 259200
Set parameter IterationLimit to value 760000000
No parameters matching 'relax_integrality' found
Gurobi Optimizer version 9.5.0 build v9.5.0rc5 (linux64)
Thread count: 36 physical cores, 36 logical processors, using up to 36 threads
Optimize a model with 32308 rows, 21790 columns and 80368 nonzeros
Model fingerprint: 0xab47b652
Coefficient statistics:
  Matrix range     [1e-03, 1e+03]
  Objective range  [1e+00, 1e+00]
  Bounds range     [6e-05, 3e+00]
  RHS range        [6e-05, 2e+01]
Presolve removed 27008 rows and 12413 columns
Presolve time: 0.04s
Presolved: 5300 rows, 9586 columns, 23435 nonzeros

Ordering time: 0.00s

Barrier statistics:
 AA' NZ     : 1.248e+04
 Factor NZ  : 4.648e+04 (roughly 5 MB of memory)
 Factor Ops : 6.113e+05 (less than 1 second per iteration)
 Threads    : 1

                  Objective                Residual
Iter       Primal          Dual         Primal    Dual     Compl     Time
   0   2.66104527e+06 -3.35398394e+07  1.37e+01 7.15e+02  2.71e+04     0s
   1   1.78563195e+05 -2.35645201e+07  8.84e-01 1.37e-11  2.85e+03     0s
   2   6.37781018e+04 -8.66884808e+06  2.74e-01 2.24e-11  7.78e+02     0s
   3   2.63213817e+04 -2.47497699e+06  3.41e-02 1.55e-11  1.67e+02     0s
   4   1.74062568e+04 -3.66226815e+05  2.73e-03 1.47e-11  2.38e+01     0s
   5   9.78663063e+03 -9.10106246e+04  3.33e-04 6.31e-12  6.20e+00     0s
   6   2.80559852e+03 -2.35231567e+04  2.37e-05 4.28e-12  1.62e+00     0s
   7   7.10431090e+02 -3.53197438e+03  1.21e-06 6.10e-12  2.61e-01     0s
   8   3.18765782e+02 -6.89045122e+02  3.14e-09 3.64e-12  6.19e-02     0s
   9   1.89062018e+02 -1.92879774e+02  1.20e-09 1.82e-12  2.35e-02     0s
  10   1.34833327e+02 -3.05037395e+01  5.13e-10 1.82e-12  1.02e-02     0s
  11   1.04644469e+02  3.36099988e+01  2.01e-10 1.82e-12  4.36e-03     0s
  12   9.15105450e+01  6.21863378e+01  7.92e-11 1.82e-12  1.80e-03     0s
  13   8.41540435e+01  7.56403106e+01  1.79e-11 3.64e-12  5.23e-04     0s
  14   8.18749582e+01  8.06159280e+01  9.95e-12 1.82e-12  7.74e-05     0s
  15   8.16660307e+01  8.13921204e+01  2.21e-11 1.82e-12  1.68e-05     0s
  16   8.16318537e+01  8.15711539e+01  5.84e-12 1.82e-12  3.73e-06     0s
  17   8.16269265e+01  8.16157067e+01  4.48e-12 1.82e-12  6.89e-07     0s
  18   8.16245504e+01  8.16234647e+01  4.96e-12 1.82e-12  6.67e-08     0s
  19   8.16243925e+01  8.16243832e+01  4.63e-12 1.82e-12  5.73e-10     0s
  20   8.16243893e+01  8.16243893e+01  3.06e-12 3.64e-12  5.73e-13     0s
  21   8.16243893e+01  8.16243893e+01  1.84e-12 1.82e-12  5.73e-16     0s

Barrier solved model in 21 iterations and 0.11 seconds (0.11 work units)
Optimal objective 8.16243893e+01

Crossover log...

    1140 DPushes remaining with DInf 0.0000000e+00                 0s

     303 PPushes remaining with PInf 0.0000000e+00                 0s
       0 PPushes remaining with PInf 0.0000000e+00                 0s

  Push phase complete: Pinf 0.0000000e+00, Dinf 5.6193049e-13      0s

Iteration    Objective       Primal Inf.    Dual Inf.      Time
     306    8.1624389e+01   0.000000e+00   0.000000e+00      0s

Use crossover to convert LP symmetric solution to basic solution...
Crossover log...

       0 DPushes remaining with DInf 0.0000000e+00                 0s

     217 PPushes remaining with PInf 0.0000000e+00                 0s
       0 PPushes remaining with PInf 0.0000000e+00                 0s

  Push phase complete: Pinf 0.0000000e+00, Dinf 8.2102361e-13      0s

Iteration    Objective       Primal Inf.    Dual Inf.      Time
     536    8.1624389e+01   0.000000e+00   0.000000e+00      0s

Solved in 536 iterations and 0.15 seconds (0.13 work units)
Optimal objective  8.162438932e+01
